305 306 304 303 301 302 508 507 506 307 308 309 310 505 504 503 502 517 514 515 516 509 510 511 513 512 527 528 529 530 531 489 532 533 488 534 535 487 486 485 484 536 483 481 482 475 476 480 479 477 478 548 549 564 566 565 563 562 561 560 559 550 551 101 102 100 99 98 96 95 97 94 93 92 91 555 554 553 552 556 41 40 557 558 35 33 34 29 28 27 26 25 24 21 567 474 473 472 471 469 468 467 466 465 464 496 470 495 494 524 525 493 492 491 490 526 523 522 521 520 518 519 497 498 500 499 452 461 462 463 460 459 458 457 456 1 2 3 4 0 5 573 572 571 570 569 568 20 19 18 17 8 7 6 9 10 11 16 15 14 13 12 23 22 31 30 32 36 37 38 39 42 43 44 45 46 47 48 49 55 56 53 54 52 50 51 84 85 86 87 90 89 88 78 79 80 81 82 83 57 58 59 60 61 63 62 64 76 77 75 74 73 119 118 120 121 117 122 123 71 72 65 66 67 68 70 69 124 125 126 127 128 116 115 106 105 104 103 547 546 545 544 543 541 542 107 109 108 173 174 175 172 170 171 169 168 162 161 111 110 114 112 113 131 130 129 132 133 134 135 136 137 138 139 140 141 151 150 149 152 148 147 142 143 144 146 145 158 157 159 156 155 153 154 160 163 167 166 164 165 201 200 199 198 202 204 203 208 207 206 205 209 210 211 212 213 214 215 216 217 223 224 222 221 220 218 219 193 194 195 196 197 184 185 183 182 181 180 179 178 177 176 540 539 537 538 187 188 186 227 189 190 192 191 226 225 228 229 230 231 233 232 234 235 236 237 240 239 238 246 247 245 244 243 242 241 248 249 250 251 252 254 253 255 256 257 260 261 259 258 262 263 264 265 300 299 298 297 296 295 294 293 270 269 268 267 266 271 272 273 274 275 292 291 290 289 288 276 277 278 279 282 281 280 287 286 285 284 283 334 335 336 337 338 339 333 332 331 330 340 341 343 344 345 346 347 348 350 349 358 359 360 361 362 363 364 365 368 369 370 367 366 342 329 328 327 326 325 324 323 322 321 320 319 318 317 316 314 315 374 373 372 371 396 395 394 397 398 399 400 404 405 406 407 408 409 385 383 384 410 418 411 412 356 402 403 401 357 355 354 353 352 351 415 416 414 413 417 419 420 421 422 423 424 425 426 427 428 429 431 382 386 387 388 389 390 392 391 393 375 376 377 378 379 380 381 445 444 443 442 446 447 448 449 450 441 440 439 436 435 434 433 432 430 437 438 455 454 453 501 451 311 312 313